NAME          
ROWS
 N  OBJ
 L  c1
 L  c2
COLUMNS
    MARKER    'MARKER'                 'INTORG'
    x[1]      c1        790
    x[1]      c2        739
    x[1]      OBJ       -90
    x[2]      c1        470
    x[2]      c2        79
    x[2]      OBJ       -637
    x[3]      c1        10
    x[3]      c2        409
    x[3]      OBJ       -77
    x[4]      c1        754
    x[4]      c2        26
    x[4]      OBJ       -933
    x[5]      c1        444
    x[5]      c2        439
    x[5]      OBJ       -48
    x[6]      c1        256
    x[6]      c2        369
    x[6]      OBJ       -465
    x[7]      c1        810
    x[7]      c2        751
    x[7]      OBJ       -697
    x[8]      c1        382
    x[8]      c2        763
    x[8]      OBJ       -961
    x[9]      c1        282
    x[9]      c2        552
    x[9]      OBJ       -661
    x[10]     c1        694
    x[10]     c2        29
    x[10]     OBJ       -953
    x[11]     c1        798
    x[11]     c2        666
    x[11]     OBJ       -316
    x[12]     c1        681
    x[12]     c2        2
    x[12]     OBJ       -54
    x[13]     c1        339
    x[13]     c2        230
    x[13]     OBJ       -158
    x[14]     c1        138
    x[14]     c2        482
    x[14]     OBJ       -680
    x[15]     c1        470
    x[15]     c2        591
    x[15]     OBJ       -681
    x[16]     c1        119
    x[16]     c2        817
    x[16]     OBJ       -220
    x[17]     c1        156
    x[17]     c2        568
    x[17]     OBJ       -810
    x[18]     c1        364
    x[18]     c2        727
    x[18]     OBJ       -443
    x[19]     c1        918
    x[19]     c2        440
    x[19]     OBJ       -526
    x[20]     c1        709
    x[20]     c2        265
    x[20]     OBJ       -99
    x[21]     c1        219
    x[21]     c2        873
    x[21]     OBJ       -733
    x[22]     c1        16
    x[22]     c2        966
    x[22]     OBJ       -57
    x[23]     c1        737
    x[23]     c2        65
    x[23]     OBJ       -837
    x[24]     c1        198
    x[24]     c2        169
    x[24]     OBJ       -122
    x[25]     c1        469
    x[25]     c2        616
    x[25]     OBJ       -816
    x[26]     c1        839
    x[26]     c2        922
    x[26]     OBJ       -694
    x[27]     c1        764
    x[27]     c2        190
    x[27]     OBJ       -798
    x[28]     c1        450
    x[28]     c2        396
    x[28]     OBJ       -577
    x[29]     c1        224
    x[29]     c2        446
    x[29]     OBJ       -357
    x[30]     c1        107
    x[30]     c2        239
    x[30]     OBJ       -465
    x[31]     c1        706
    x[31]     c2        325
    x[31]     OBJ       -39
    x[32]     c1        670
    x[32]     c2        729
    x[32]     OBJ       -66
    x[33]     c1        449
    x[33]     c2        821
    x[33]     OBJ       -807
    x[34]     c1        234
    x[34]     c2        836
    x[34]     OBJ       -894
    x[35]     c1        519
    x[35]     c2        790
    x[35]     OBJ       -951
RHS
    rhs       c1        8092
    rhs       c2        8664
RANGES
BOUNDS
 BV bounds    x[1]
 BV bounds    x[2]
 BV bounds    x[3]
 BV bounds    x[4]
 BV bounds    x[5]
 BV bounds    x[6]
 BV bounds    x[7]
 BV bounds    x[8]
 BV bounds    x[9]
 BV bounds    x[10]
 BV bounds    x[11]
 BV bounds    x[12]
 BV bounds    x[13]
 BV bounds    x[14]
 BV bounds    x[15]
 BV bounds    x[16]
 BV bounds    x[17]
 BV bounds    x[18]
 BV bounds    x[19]
 BV bounds    x[20]
 BV bounds    x[21]
 BV bounds    x[22]
 BV bounds    x[23]
 BV bounds    x[24]
 BV bounds    x[25]
 BV bounds    x[26]
 BV bounds    x[27]
 BV bounds    x[28]
 BV bounds    x[29]
 BV bounds    x[30]
 BV bounds    x[31]
 BV bounds    x[32]
 BV bounds    x[33]
 BV bounds    x[34]
 BV bounds    x[35]
ENDATA
